MO-G-FJSP_P1.txt
6 5
1 2 3 4 5 6
20 1 1 10 1000
20 2 2 20 2000
20 30 3 10 3000
20 2 4 20 2000
2 30 5 10 1000
0 2 8 9 2
2 0 3 1 10
8 3 0 7 6
9 1 7 0 5
2 10 6 5 0
 6  2 1 5 3 4 3 5 3 3 5 2 1 2 3 4 5 2 3 5 5 2 6 1 1 1 3 1 3 5 6 3 6 4 3  
 5  1 2 6 1 3 1 1 1 2 2 2 6 4 6 3 5 5 2 6 1 1 
 5  1 2 6 2 3 4 5 2 3 5 5 2 6 1 1 3 3 4 2 6 5 6 2 1 1 5 5 
 5  3 5 5 2 6 1 1 1 2 6 1 3 1 3 5 3 3 5 2 1 2 3 4 5 2
 6  3 5 3 3 5 2 1 3 5 5 2 6 1 1 1 2 6 2 1 5 3 4 2 2 6 4 6 3 3 4 2 6 5 6
 6  2 3 4 5 2 1 1 2 3 3 4 2 6 5 6 1 2 6 3 5 5 2 6 1 1 2 1 3 4 2