data/MO-G-FJSP_P1.fjs
10	6	2
10 20 15 2 5 10 5 5 4 1
20 1 1 10 1000
20 2 2 20 2000
20 30 3 10 3000
20 2 4 20 2000
2 30 5 10 1000
15 5 6 20 3000
 0 2 3 2 3 1
 2 0 5 5 4 1
 3 5 0 1 2 6
 2 5 4 0 4 6
 3 4 2 4 0 8
 1 1 6 6 8 0
 6  2 1 5 3 4 3 5 3 3 5 2 1 2 3 4 6 2 3 6 5 2 6 1 1 1 3 1 3 6 6 3 6 4 3  
 5  1 2 6 1 3 1 1 1 2 2 2 6 4 6 3 6 5 2 6 1 1 
 5  1 2 6 2 3 4 6 2 3 6 5 2 6 1 1 3 3 4 2 6 6 6 2 1 1 5 5 
 5  3 6 5 2 6 1 1 1 2 6 1 3 1 3 5 3 3 5 2 1 2 3 4 6 2
 6  3 5 3 3 5 2 1 3 6 5 2 6 1 1 1 2 6 2 1 5 3 4 2 2 6 4 6 3 3 4 2 6 6 6
 6  2 3 4 6 2 1 1 2 3 3 4 2 6 6 6 1 2 6 3 6 5 2 6 1 1 2 1 3 4 2
 5  1 6 1 2 1 3 4 2 3 3 4 2 6 6 6 3 2 6 5 1 1 6 1 3 1
 5  2 3 4 6 2 3 3 4 2 6 6 6 3 6 5 2 6 1 1 1 2 6 2 2 6 4 6
 6  1 6 1 2 1 1 5 5 3 6 6 3 6 4 3 1 1 2 3 3 4 2 6 6 6 2 2 6 4 6
 6  2 3 4 6 2 3 3 4 2 6 6 6 3 5 3 3 5 2 1 1 6 1 2 2 6 4 6 2 1 3 4 2 

